s = array1d(1..400, [0, 0, 3, 8, 10, 0, 1, 0, 5, 0, 16, 11, 0, 19, 0, 6, 0, 0, 0, 18, 0, 18, 1, 0, 19, 10, 0, 0, 0, 12, 0, 3, 0, 5, 0, 13, 0, 17, 0, 15, 7, 9, 0, 6, 0, 0, 0, 8, 0, 0, 11, 0, 0, 17, 0, 14, 18, 13, 0, 2, 13, 0, 8, 18, 5, 0, 6, 0, 11, 0, 0, 0, 7, 12, 0, 15, 0, 1, 0, 19, 0, 12, 19, 0, 0, 2, 0, 0, 0, 1, 0, 0, 0, 3, 10, 7, 0, 4, 18, 14, 0, 6, 0, 7, 0, 8, 12, 0, 15, 5, 18, 14, 13, 0, 19, 0, 0, 0, 0, 0, 0, 0, 0, 0, 17, 0, 0, 2, 0, 0, 12, 4, 3, 9, 16, 0, 15, 8, 14, 0, 9, 0, 0, 0, 0, 13, 14, 5, 0, 0, 0, 2, 0, 11, 0, 17, 10, 0, 19, 0, 0, 0, 12, 0, 15, 0, 0, 0, 14, 10, 17, 7, 0, 0, 5, 0, 6, 18, 8, 16, 0, 0, 4, 0, 1, 0, 0, 15, 0, 0, 13, 0, 10, 7, 2, 19, 11, 0, 16, 0, 18, 16, 15, 0, 12, 5, 17, 1, 9, 6, 0, 0, 0, 0, 0, 0, 19, 0, 0, 0, 6, 11, 0, 0, 0, 0, 15, 0, 7, 3, 0, 0, 17, 0, 8, 0, 2, 10, 0, 13, 0, 5, 0, 9, 8, 0, 2, 7, 13, 15, 0, 0, 0, 16, 18, 0, 12, 0, 0, 1, 17, 0, 18, 16, 14, 0, 0, 0, 0, 0, 4, 9, 0, 0, 7, 10, 0, 0, 1, 3, 0, 8, 0, 0, 0, 0, 13, 3, 4, 18, 0, 0, 19, 0, 17, 9, 0, 2, 15, 0, 19, 0, 0, 0, 0, 18, 4, 9, 0, 0, 2, 17, 15, 0, 0, 12, 13, 0, 10, 0, 15, 1, 7, 12, 0, 11, 0, 0, 18, 0, 0, 16, 14, 0, 0, 0, 4, 9, 0, 0, 0, 17, 10, 19, 0, 16, 0, 0, 0, 14, 1, 0, 11, 2, 0, 0, 9, 6, 12, 0, 4, 0, 0, 5, 0, 17, 8, 14, 3, 0, 0, 6, 2, 0, 11, 0, 0, 0, 13, 0, 11, 4, 6, 3, 2, 0, 5, 17, 0, 0, 9, 0, 0, 18, 0, 0, 0, 7, 0, 0]);
n = 20;
